(declare-fun b_2_path () Bool)
(declare-fun c_1_Global_M_faulty () (Array Int Int))
(declare-fun c_2_Global_M_faulty () (Array Int Int))
(declare-fun i_1_i.0.i () Int)
(declare-fun b_1_exit () Bool)
(declare-fun b_3_path () Bool)
(declare-fun c_3_Global_M_faulty () (Array Int Int))
(declare-fun b_5_path () Bool)
(declare-fun c_4_Global_M_faulty () (Array Int Int))
(declare-fun i_2_i.0.i2 () Int)
(declare-fun b_4_exit () Bool)
(declare-fun b_6_path () Bool)
(declare-fun c_5_Global_M_faulty () (Array Int Int))
(declare-fun b_8_path () Bool)
(declare-fun c_6_Global_M_faulty () (Array Int Int))
(declare-fun i_3_i.0.i9 () Int)
(declare-fun b_7_exit () Bool)
(declare-fun b_9_path () Bool)
(declare-fun c_7_Global_M_faulty () (Array Int Int))
(declare-fun i_5_Vdec_faulty () Int)
(declare-fun c_8_Global_M_faulty () (Array Int Int))
(declare-fun b_10_path () Bool)
(declare-fun c_9_Global_M_faulty () (Array Int Int))
(declare-fun i_7_Ox_faulty () Int)
(declare-fun c_10_Global_M_faulty () (Array Int Int))
(declare-fun b_11_path () Bool)
(declare-fun c_11_Global_M_faulty () (Array Int Int))
(declare-fun i_9_s_faulty () Int)
(declare-fun c_12_Global_M_faulty () (Array Int Int))
(declare-fun b_12_path () Bool)
(declare-fun c_13_Global_M_faulty () (Array Int Int))
(declare-fun c_14_Global_M_faulty () (Array Int Int))
(declare-fun c_15_Global_M_faulty () (Array Int Int))
(declare-fun c_16_Global_M_faulty () (Array Int Int))
(declare-fun c_17_Global_M_faulty () (Array Int Int))
(declare-fun c_18_Global_M_faulty () (Array Int Int))
(declare-fun c_19_Global_M_faulty () (Array Int Int))
(declare-fun c_20_Global_M_faulty () (Array Int Int))
(declare-fun c_21_Global_M_faulty () (Array Int Int))
(declare-fun c_22_Global_M_faulty () (Array Int Int))
(declare-fun c_23_Global_M_faulty () (Array Int Int))
(declare-fun c_24_Global_M_faulty () (Array Int Int))
(declare-fun c_25_Global_M_faulty () (Array Int Int))
(declare-fun c_26_Global_M_faulty () (Array Int Int))
(declare-fun c_27_Global_M_faulty () (Array Int Int))
(declare-fun c_28_Global_M_faulty () (Array Int Int))
(declare-fun c_29_Global_M_faulty () (Array Int Int))
(declare-fun c_30_Global_M_faulty () (Array Int Int))
(declare-fun c_31_Global_M_faulty () (Array Int Int))
(declare-fun c_32_Global_M_faulty () (Array Int Int))
(declare-fun c_33_Global_M_faulty () (Array Int Int))
(declare-fun c_34_Global_M_faulty () (Array Int Int))
(declare-fun c_35_Global_M_faulty () (Array Int Int))
(declare-fun c_36_Global_M_faulty () (Array Int Int))
(declare-fun c_37_Global_M_faulty () (Array Int Int))
(declare-fun c_38_Global_M_faulty () (Array Int Int))
(declare-fun c_39_Global_M_faulty () (Array Int Int))
(declare-fun c_40_Global_M_faulty () (Array Int Int))
(declare-fun c_41_Global_M_faulty () (Array Int Int))
(declare-fun c_42_Global_M_faulty () (Array Int Int))
(declare-fun c_43_Global_M_faulty () (Array Int Int))
(declare-fun c_44_Global_M_faulty () (Array Int Int))
(declare-fun c_45_Global_M_faulty () (Array Int Int))
(declare-fun c_46_Global_M_faulty () (Array Int Int))
(declare-fun c_47_Global_M_faulty () (Array Int Int))
(declare-fun c_48_Global_M_faulty () (Array Int Int))
(declare-fun c_49_Global_M_faulty () (Array Int Int))
(declare-fun c_50_Global_M_faulty () (Array Int Int))
(declare-fun c_51_Global_M_faulty () (Array Int Int))
(declare-fun c_52_Global_M_faulty () (Array Int Int))
(declare-fun c_53_Global_M_faulty () (Array Int Int))
(declare-fun c_54_Global_M_faulty () (Array Int Int))
(declare-fun c_55_Global_M_faulty () (Array Int Int))
(declare-fun c_56_Global_M_faulty () (Array Int Int))
(declare-fun c_57_Global_M_faulty () (Array Int Int))
(declare-fun c_58_Global_M_faulty () (Array Int Int))
(declare-fun c_59_Global_M_faulty () (Array Int Int))
(declare-fun c_60_Global_M_faulty () (Array Int Int))
(declare-fun c_61_Global_M_faulty () (Array Int Int))
(declare-fun c_62_Global_M_faulty () (Array Int Int))
(declare-fun c_63_Global_M_faulty () (Array Int Int))
(declare-fun c_64_Global_M_faulty () (Array Int Int))
(declare-fun c_65_Global_M_faulty () (Array Int Int))
(declare-fun c_66_Global_M_faulty () (Array Int Int))
(declare-fun c_67_Global_M_faulty () (Array Int Int))
(declare-fun c_68_Global_M_faulty () (Array Int Int))
(declare-fun c_69_Global_M_faulty () (Array Int Int))
(declare-fun c_70_Global_M_faulty () (Array Int Int))
(declare-fun c_71_Global_M_faulty () (Array Int Int))
(declare-fun c_72_Global_M_faulty () (Array Int Int))
(declare-fun c_73_Global_M_faulty () (Array Int Int))
(declare-fun c_74_Global_M_faulty () (Array Int Int))
(declare-fun c_75_Global_M_faulty () (Array Int Int))
(declare-fun c_76_Global_M_faulty () (Array Int Int))
(declare-fun c_77_Global_M_faulty () (Array Int Int))
(declare-fun c_78_Global_M_faulty () (Array Int Int))
(declare-fun c_79_Global_M_faulty () (Array Int Int))
(declare-fun c_80_Global_M_faulty () (Array Int Int))
(declare-fun c_81_Global_M_faulty () (Array Int Int))
(declare-fun c_82_Global_M_faulty () (Array Int Int))
(declare-fun c_83_Global_M_faulty () (Array Int Int))
(declare-fun c_84_Global_M_faulty () (Array Int Int))
(declare-fun c_85_Global_M_faulty () (Array Int Int))
(declare-fun c_86_Global_M_faulty () (Array Int Int))
(declare-fun c_87_Global_M_faulty () (Array Int Int))
(declare-fun c_88_Global_M_faulty () (Array Int Int))
(declare-fun c_89_Global_M_faulty () (Array Int Int))
(declare-fun c_90_Global_M_faulty () (Array Int Int))
(declare-fun c_91_Global_M_faulty () (Array Int Int))
(declare-fun i_10_ret_val_faulty () Int)
(assert true)
(assert (=> b_2_path (or (and true true))))
(assert (and (=> (and true true) (= c_2_Global_M_faulty c_1_Global_M_faulty))))
(assert and)
(assert (and (=> (and true true) (= i_1_i.0.i 0))))
(assert (= (distinct i_1_i.0.i 780) b_1_exit))
(assert (=> b_3_path (or (and b_2_path (not b_1_exit)))))
(assert (and (=> (and b_2_path (not b_1_exit))
         (= c_3_Global_M_faulty c_2_Global_M_faulty))))
(assert and)
(assert (=> b_5_path (or (and b_3_path true))))
(assert (and (=> (and b_3_path true) (= c_4_Global_M_faulty c_3_Global_M_faulty))))
(assert and)
(assert (and (=> (and b_3_path true) (= i_2_i.0.i2 0))))
(assert (= (distinct i_2_i.0.i2 78) b_4_exit))
(assert (=> b_6_path (or (and b_5_path (not b_4_exit)))))
(assert (and (=> (and b_5_path (not b_4_exit))
         (= c_5_Global_M_faulty c_4_Global_M_faulty))))
(assert and)
(assert (=> b_8_path (or (and b_6_path true))))
(assert (and (=> (and b_6_path true) (= c_6_Global_M_faulty c_5_Global_M_faulty))))
(assert and)
(assert (and (=> (and b_6_path true) (= i_3_i.0.i9 0))))
(assert (= (distinct i_3_i.0.i9 860) b_7_exit))
(assert (=> b_9_path (or (and b_2_path b_1_exit))))
(assert (and (=> (and b_2_path b_1_exit) (= c_7_Global_M_faulty c_2_Global_M_faulty))))
(assert and)
(assert (= c_8_Global_M_faulty
   (store c_7_Global_M_faulty (+ i_5_Vdec_faulty i_1_i.0.i) 0)))
(assert (=> b_10_path (or (and b_5_path b_4_exit))))
(assert (and (=> (and b_5_path b_4_exit) (= c_9_Global_M_faulty c_4_Global_M_faulty))))
(assert and)
(assert (= c_10_Global_M_faulty
   (store c_9_Global_M_faulty (+ 780 i_7_Ox_faulty i_2_i.0.i2) 0)))
(assert (=> b_11_path (or (and b_8_path b_7_exit))))
(assert (and (=> (and b_8_path b_7_exit) (= c_11_Global_M_faulty c_6_Global_M_faulty))))
(assert and)
(assert (= c_12_Global_M_faulty
   (store c_11_Global_M_faulty (+ 858 i_9_s_faulty i_3_i.0.i9) 0)))
(assert (=> b_12_path (or (and b_8_path (not b_7_exit)))))
(assert (and (=> (and b_8_path (not b_7_exit))
         (= c_13_Global_M_faulty c_6_Global_M_faulty))))
(assert and)
(assert (= c_14_Global_M_faulty
   (store c_13_Global_M_faulty
          (+ 858 i_9_s_faulty)
          (select c_13_Global_M_faulty (+ 780 i_5_Vdec_faulty)))))
(assert (let ((a!1 (bvxor ((_ int2bv 8)
                    (select c_14_Global_M_faulty (+ 781 i_5_Vdec_faulty)))
                  ((_ int2bv 8)
                    (select c_14_Global_M_faulty (+ 781 i_7_Ox_faulty))))))
(let ((a!2 (store c_14_Global_M_faulty
                  (+ 859 i_9_s_faulty)
                  (ite (bvslt a!1 #x00) (- (bv2int a!1) 256) (bv2int a!1)))))
  (= c_15_Global_M_faulty a!2))))
(assert (let ((a!1 (bvxor ((_ int2bv 8)
                    (select c_15_Global_M_faulty (+ 782 i_5_Vdec_faulty)))
                  ((_ int2bv 8)
                    (select c_15_Global_M_faulty (+ 782 i_7_Ox_faulty))))))
(let ((a!2 (store c_15_Global_M_faulty
                  (+ 860 i_9_s_faulty)
                  (ite (bvslt a!1 #x00) (- (bv2int a!1) 256) (bv2int a!1)))))
  (= c_16_Global_M_faulty a!2))))
(assert (let ((a!1 (bvxor ((_ int2bv 8)
                    (select c_16_Global_M_faulty (+ 783 i_5_Vdec_faulty)))
                  ((_ int2bv 8)
                    (select c_16_Global_M_faulty (+ 783 i_7_Ox_faulty))))))
(let ((a!2 (store c_16_Global_M_faulty
                  (+ 861 i_9_s_faulty)
                  (ite (bvslt a!1 #x00) (- (bv2int a!1) 256) (bv2int a!1)))))
  (= c_17_Global_M_faulty a!2))))
(assert (let ((a!1 (bvxor ((_ int2bv 8)
                    (select c_17_Global_M_faulty (+ 784 i_5_Vdec_faulty)))
                  ((_ int2bv 8)
                    (select c_17_Global_M_faulty (+ 784 i_7_Ox_faulty))))))
(let ((a!2 (store c_17_Global_M_faulty
                  (+ 862 i_9_s_faulty)
                  (ite (bvslt a!1 #x00) (- (bv2int a!1) 256) (bv2int a!1)))))
  (= c_18_Global_M_faulty a!2))))
(assert (let ((a!1 (bvxor ((_ int2bv 8)
                    (select c_18_Global_M_faulty (+ 785 i_5_Vdec_faulty)))
                  ((_ int2bv 8)
                    (select c_18_Global_M_faulty (+ 785 i_7_Ox_faulty))))))
(let ((a!2 (store c_18_Global_M_faulty
                  (+ 863 i_9_s_faulty)
                  (ite (bvslt a!1 #x00) (- (bv2int a!1) 256) (bv2int a!1)))))
  (= c_19_Global_M_faulty a!2))))
(assert (let ((a!1 (bvxor ((_ int2bv 8)
                    (select c_19_Global_M_faulty (+ 786 i_5_Vdec_faulty)))
                  ((_ int2bv 8)
                    (select c_19_Global_M_faulty (+ 786 i_7_Ox_faulty))))))
(let ((a!2 (store c_19_Global_M_faulty
                  (+ 864 i_9_s_faulty)
                  (ite (bvslt a!1 #x00) (- (bv2int a!1) 256) (bv2int a!1)))))
  (= c_20_Global_M_faulty a!2))))
(assert (let ((a!1 (bvxor ((_ int2bv 8)
                    (select c_20_Global_M_faulty (+ 787 i_5_Vdec_faulty)))
                  ((_ int2bv 8)
                    (select c_20_Global_M_faulty (+ 787 i_7_Ox_faulty))))))
(let ((a!2 (store c_20_Global_M_faulty
                  (+ 865 i_9_s_faulty)
                  (ite (bvslt a!1 #x00) (- (bv2int a!1) 256) (bv2int a!1)))))
  (= c_21_Global_M_faulty a!2))))
(assert (let ((a!1 (bvxor ((_ int2bv 8)
                    (select c_21_Global_M_faulty (+ 788 i_5_Vdec_faulty)))
                  ((_ int2bv 8)
                    (select c_21_Global_M_faulty (+ 788 i_7_Ox_faulty))))))
(let ((a!2 (store c_21_Global_M_faulty
                  (+ 866 i_9_s_faulty)
                  (ite (bvslt a!1 #x00) (- (bv2int a!1) 256) (bv2int a!1)))))
  (= c_22_Global_M_faulty a!2))))
(assert (let ((a!1 (bvxor ((_ int2bv 8)
                    (select c_22_Global_M_faulty (+ 789 i_5_Vdec_faulty)))
                  ((_ int2bv 8)
                    (select c_22_Global_M_faulty (+ 789 i_7_Ox_faulty))))))
(let ((a!2 (store c_22_Global_M_faulty
                  (+ 867 i_9_s_faulty)
                  (ite (bvslt a!1 #x00) (- (bv2int a!1) 256) (bv2int a!1)))))
  (= c_23_Global_M_faulty a!2))))
(assert (let ((a!1 (bvxor ((_ int2bv 8)
                    (select c_23_Global_M_faulty (+ 790 i_5_Vdec_faulty)))
                  ((_ int2bv 8)
                    (select c_23_Global_M_faulty (+ 790 i_7_Ox_faulty))))))
(let ((a!2 (store c_23_Global_M_faulty
                  (+ 868 i_9_s_faulty)
                  (ite (bvslt a!1 #x00) (- (bv2int a!1) 256) (bv2int a!1)))))
  (= c_24_Global_M_faulty a!2))))
(assert (let ((a!1 (bvxor ((_ int2bv 8)
                    (select c_24_Global_M_faulty (+ 791 i_5_Vdec_faulty)))
                  ((_ int2bv 8)
                    (select c_24_Global_M_faulty (+ 791 i_7_Ox_faulty))))))
(let ((a!2 (store c_24_Global_M_faulty
                  (+ 869 i_9_s_faulty)
                  (ite (bvslt a!1 #x00) (- (bv2int a!1) 256) (bv2int a!1)))))
  (= c_25_Global_M_faulty a!2))))
(assert (let ((a!1 (bvxor ((_ int2bv 8)
                    (select c_25_Global_M_faulty (+ 792 i_5_Vdec_faulty)))
                  ((_ int2bv 8)
                    (select c_25_Global_M_faulty (+ 792 i_7_Ox_faulty))))))
(let ((a!2 (store c_25_Global_M_faulty
                  (+ 870 i_9_s_faulty)
                  (ite (bvslt a!1 #x00) (- (bv2int a!1) 256) (bv2int a!1)))))
  (= c_26_Global_M_faulty a!2))))
(assert (let ((a!1 (bvxor ((_ int2bv 8)
                    (select c_26_Global_M_faulty (+ 793 i_5_Vdec_faulty)))
                  ((_ int2bv 8)
                    (select c_26_Global_M_faulty (+ 793 i_7_Ox_faulty))))))
(let ((a!2 (store c_26_Global_M_faulty
                  (+ 871 i_9_s_faulty)
                  (ite (bvslt a!1 #x00) (- (bv2int a!1) 256) (bv2int a!1)))))
  (= c_27_Global_M_faulty a!2))))
(assert (let ((a!1 (bvxor ((_ int2bv 8)
                    (select c_27_Global_M_faulty (+ 794 i_5_Vdec_faulty)))
                  ((_ int2bv 8)
                    (select c_27_Global_M_faulty (+ 794 i_7_Ox_faulty))))))
(let ((a!2 (store c_27_Global_M_faulty
                  (+ 872 i_9_s_faulty)
                  (ite (bvslt a!1 #x00) (- (bv2int a!1) 256) (bv2int a!1)))))
  (= c_28_Global_M_faulty a!2))))
(assert (let ((a!1 (bvxor ((_ int2bv 8)
                    (select c_28_Global_M_faulty (+ 795 i_5_Vdec_faulty)))
                  ((_ int2bv 8)
                    (select c_28_Global_M_faulty (+ 795 i_7_Ox_faulty))))))
(let ((a!2 (store c_28_Global_M_faulty
                  (+ 873 i_9_s_faulty)
                  (ite (bvslt a!1 #x00) (- (bv2int a!1) 256) (bv2int a!1)))))
  (= c_29_Global_M_faulty a!2))))
(assert (let ((a!1 (bvxor ((_ int2bv 8)
                    (select c_29_Global_M_faulty (+ 796 i_5_Vdec_faulty)))
                  ((_ int2bv 8)
                    (select c_29_Global_M_faulty (+ 796 i_7_Ox_faulty))))))
(let ((a!2 (store c_29_Global_M_faulty
                  (+ 874 i_9_s_faulty)
                  (ite (bvslt a!1 #x00) (- (bv2int a!1) 256) (bv2int a!1)))))
  (= c_30_Global_M_faulty a!2))))
(assert (let ((a!1 (bvxor ((_ int2bv 8)
                    (select c_30_Global_M_faulty (+ 797 i_5_Vdec_faulty)))
                  ((_ int2bv 8)
                    (select c_30_Global_M_faulty (+ 797 i_7_Ox_faulty))))))
(let ((a!2 (store c_30_Global_M_faulty
                  (+ 875 i_9_s_faulty)
                  (ite (bvslt a!1 #x00) (- (bv2int a!1) 256) (bv2int a!1)))))
  (= c_31_Global_M_faulty a!2))))
(assert (let ((a!1 (bvxor ((_ int2bv 8)
                    (select c_31_Global_M_faulty (+ 798 i_5_Vdec_faulty)))
                  ((_ int2bv 8)
                    (select c_31_Global_M_faulty (+ 798 i_7_Ox_faulty))))))
(let ((a!2 (store c_31_Global_M_faulty
                  (+ 876 i_9_s_faulty)
                  (ite (bvslt a!1 #x00) (- (bv2int a!1) 256) (bv2int a!1)))))
  (= c_32_Global_M_faulty a!2))))
(assert (let ((a!1 (bvxor ((_ int2bv 8)
                    (select c_32_Global_M_faulty (+ 799 i_5_Vdec_faulty)))
                  ((_ int2bv 8)
                    (select c_32_Global_M_faulty (+ 799 i_7_Ox_faulty))))))
(let ((a!2 (store c_32_Global_M_faulty
                  (+ 877 i_9_s_faulty)
                  (ite (bvslt a!1 #x00) (- (bv2int a!1) 256) (bv2int a!1)))))
  (= c_33_Global_M_faulty a!2))))
(assert (let ((a!1 (bvxor ((_ int2bv 8)
                    (select c_33_Global_M_faulty (+ 800 i_5_Vdec_faulty)))
                  ((_ int2bv 8)
                    (select c_33_Global_M_faulty (+ 800 i_7_Ox_faulty))))))
(let ((a!2 (store c_33_Global_M_faulty
                  (+ 878 i_9_s_faulty)
                  (ite (bvslt a!1 #x00) (- (bv2int a!1) 256) (bv2int a!1)))))
  (= c_34_Global_M_faulty a!2))))
(assert (let ((a!1 (bvxor ((_ int2bv 8)
                    (select c_34_Global_M_faulty (+ 801 i_5_Vdec_faulty)))
                  ((_ int2bv 8)
                    (select c_34_Global_M_faulty (+ 801 i_7_Ox_faulty))))))
(let ((a!2 (store c_34_Global_M_faulty
                  (+ 879 i_9_s_faulty)
                  (ite (bvslt a!1 #x00) (- (bv2int a!1) 256) (bv2int a!1)))))
  (= c_35_Global_M_faulty a!2))))
(assert (let ((a!1 (bvxor ((_ int2bv 8)
                    (select c_35_Global_M_faulty (+ 802 i_5_Vdec_faulty)))
                  ((_ int2bv 8)
                    (select c_35_Global_M_faulty (+ 802 i_7_Ox_faulty))))))
(let ((a!2 (store c_35_Global_M_faulty
                  (+ 880 i_9_s_faulty)
                  (ite (bvslt a!1 #x00) (- (bv2int a!1) 256) (bv2int a!1)))))
  (= c_36_Global_M_faulty a!2))))
(assert (let ((a!1 (bvxor ((_ int2bv 8)
                    (select c_36_Global_M_faulty (+ 803 i_5_Vdec_faulty)))
                  ((_ int2bv 8)
                    (select c_36_Global_M_faulty (+ 803 i_7_Ox_faulty))))))
(let ((a!2 (store c_36_Global_M_faulty
                  (+ 881 i_9_s_faulty)
                  (ite (bvslt a!1 #x00) (- (bv2int a!1) 256) (bv2int a!1)))))
  (= c_37_Global_M_faulty a!2))))
(assert (let ((a!1 (bvxor ((_ int2bv 8)
                    (select c_37_Global_M_faulty (+ 804 i_5_Vdec_faulty)))
                  ((_ int2bv 8)
                    (select c_37_Global_M_faulty (+ 804 i_7_Ox_faulty))))))
(let ((a!2 (store c_37_Global_M_faulty
                  (+ 882 i_9_s_faulty)
                  (ite (bvslt a!1 #x00) (- (bv2int a!1) 256) (bv2int a!1)))))
  (= c_38_Global_M_faulty a!2))))
(assert (let ((a!1 (bvxor ((_ int2bv 8)
                    (select c_38_Global_M_faulty (+ 805 i_5_Vdec_faulty)))
                  ((_ int2bv 8)
                    (select c_38_Global_M_faulty (+ 805 i_7_Ox_faulty))))))
(let ((a!2 (store c_38_Global_M_faulty
                  (+ 883 i_9_s_faulty)
                  (ite (bvslt a!1 #x00) (- (bv2int a!1) 256) (bv2int a!1)))))
  (= c_39_Global_M_faulty a!2))))
(assert (let ((a!1 (bvxor ((_ int2bv 8)
                    (select c_39_Global_M_faulty (+ 806 i_5_Vdec_faulty)))
                  ((_ int2bv 8)
                    (select c_39_Global_M_faulty (+ 806 i_7_Ox_faulty))))))
(let ((a!2 (store c_39_Global_M_faulty
                  (+ 884 i_9_s_faulty)
                  (ite (bvslt a!1 #x00) (- (bv2int a!1) 256) (bv2int a!1)))))
  (= c_40_Global_M_faulty a!2))))
(assert (let ((a!1 (bvxor ((_ int2bv 8)
                    (select c_40_Global_M_faulty (+ 807 i_5_Vdec_faulty)))
                  ((_ int2bv 8)
                    (select c_40_Global_M_faulty (+ 807 i_7_Ox_faulty))))))
(let ((a!2 (store c_40_Global_M_faulty
                  (+ 885 i_9_s_faulty)
                  (ite (bvslt a!1 #x00) (- (bv2int a!1) 256) (bv2int a!1)))))
  (= c_41_Global_M_faulty a!2))))
(assert (let ((a!1 (bvxor ((_ int2bv 8)
                    (select c_41_Global_M_faulty (+ 808 i_5_Vdec_faulty)))
                  ((_ int2bv 8)
                    (select c_41_Global_M_faulty (+ 808 i_7_Ox_faulty))))))
(let ((a!2 (store c_41_Global_M_faulty
                  (+ 886 i_9_s_faulty)
                  (ite (bvslt a!1 #x00) (- (bv2int a!1) 256) (bv2int a!1)))))
  (= c_42_Global_M_faulty a!2))))
(assert (let ((a!1 (bvxor ((_ int2bv 8)
                    (select c_42_Global_M_faulty (+ 809 i_5_Vdec_faulty)))
                  ((_ int2bv 8)
                    (select c_42_Global_M_faulty (+ 809 i_7_Ox_faulty))))))
(let ((a!2 (store c_42_Global_M_faulty
                  (+ 887 i_9_s_faulty)
                  (ite (bvslt a!1 #x00) (- (bv2int a!1) 256) (bv2int a!1)))))
  (= c_43_Global_M_faulty a!2))))
(assert (let ((a!1 (bvxor ((_ int2bv 8)
                    (select c_43_Global_M_faulty (+ 810 i_5_Vdec_faulty)))
                  ((_ int2bv 8)
                    (select c_43_Global_M_faulty (+ 810 i_7_Ox_faulty))))))
(let ((a!2 (store c_43_Global_M_faulty
                  (+ 888 i_9_s_faulty)
                  (ite (bvslt a!1 #x00) (- (bv2int a!1) 256) (bv2int a!1)))))
  (= c_44_Global_M_faulty a!2))))
(assert (let ((a!1 (bvxor ((_ int2bv 8)
                    (select c_44_Global_M_faulty (+ 811 i_5_Vdec_faulty)))
                  ((_ int2bv 8)
                    (select c_44_Global_M_faulty (+ 811 i_7_Ox_faulty))))))
(let ((a!2 (store c_44_Global_M_faulty
                  (+ 889 i_9_s_faulty)
                  (ite (bvslt a!1 #x00) (- (bv2int a!1) 256) (bv2int a!1)))))
  (= c_45_Global_M_faulty a!2))))
(assert (let ((a!1 (bvxor ((_ int2bv 8)
                    (select c_45_Global_M_faulty (+ 812 i_5_Vdec_faulty)))
                  ((_ int2bv 8)
                    (select c_45_Global_M_faulty (+ 812 i_7_Ox_faulty))))))
(let ((a!2 (store c_45_Global_M_faulty
                  (+ 890 i_9_s_faulty)
                  (ite (bvslt a!1 #x00) (- (bv2int a!1) 256) (bv2int a!1)))))
  (= c_46_Global_M_faulty a!2))))
(assert (let ((a!1 (bvxor ((_ int2bv 8)
                    (select c_46_Global_M_faulty (+ 813 i_5_Vdec_faulty)))
                  ((_ int2bv 8)
                    (select c_46_Global_M_faulty (+ 813 i_7_Ox_faulty))))))
(let ((a!2 (store c_46_Global_M_faulty
                  (+ 891 i_9_s_faulty)
                  (ite (bvslt a!1 #x00) (- (bv2int a!1) 256) (bv2int a!1)))))
  (= c_47_Global_M_faulty a!2))))
(assert (let ((a!1 (bvxor ((_ int2bv 8)
                    (select c_47_Global_M_faulty (+ 814 i_5_Vdec_faulty)))
                  ((_ int2bv 8)
                    (select c_47_Global_M_faulty (+ 814 i_7_Ox_faulty))))))
(let ((a!2 (store c_47_Global_M_faulty
                  (+ 892 i_9_s_faulty)
                  (ite (bvslt a!1 #x00) (- (bv2int a!1) 256) (bv2int a!1)))))
  (= c_48_Global_M_faulty a!2))))
(assert (let ((a!1 (bvxor ((_ int2bv 8)
                    (select c_48_Global_M_faulty (+ 815 i_5_Vdec_faulty)))
                  ((_ int2bv 8)
                    (select c_48_Global_M_faulty (+ 815 i_7_Ox_faulty))))))
(let ((a!2 (store c_48_Global_M_faulty
                  (+ 893 i_9_s_faulty)
                  (ite (bvslt a!1 #x00) (- (bv2int a!1) 256) (bv2int a!1)))))
  (= c_49_Global_M_faulty a!2))))
(assert (let ((a!1 (bvxor ((_ int2bv 8)
                    (select c_49_Global_M_faulty (+ 816 i_5_Vdec_faulty)))
                  ((_ int2bv 8)
                    (select c_49_Global_M_faulty (+ 816 i_7_Ox_faulty))))))
(let ((a!2 (store c_49_Global_M_faulty
                  (+ 894 i_9_s_faulty)
                  (ite (bvslt a!1 #x00) (- (bv2int a!1) 256) (bv2int a!1)))))
  (= c_50_Global_M_faulty a!2))))
(assert (let ((a!1 (bvxor ((_ int2bv 8)
                    (select c_50_Global_M_faulty (+ 817 i_5_Vdec_faulty)))
                  ((_ int2bv 8)
                    (select c_50_Global_M_faulty (+ 817 i_7_Ox_faulty))))))
(let ((a!2 (store c_50_Global_M_faulty
                  (+ 895 i_9_s_faulty)
                  (ite (bvslt a!1 #x00) (- (bv2int a!1) 256) (bv2int a!1)))))
  (= c_51_Global_M_faulty a!2))))
(assert (let ((a!1 (bvxor ((_ int2bv 8)
                    (select c_51_Global_M_faulty (+ 818 i_5_Vdec_faulty)))
                  ((_ int2bv 8)
                    (select c_51_Global_M_faulty (+ 818 i_7_Ox_faulty))))))
(let ((a!2 (store c_51_Global_M_faulty
                  (+ 896 i_9_s_faulty)
                  (ite (bvslt a!1 #x00) (- (bv2int a!1) 256) (bv2int a!1)))))
  (= c_52_Global_M_faulty a!2))))
(assert (let ((a!1 (bvxor ((_ int2bv 8)
                    (select c_52_Global_M_faulty (+ 819 i_5_Vdec_faulty)))
                  ((_ int2bv 8)
                    (select c_52_Global_M_faulty (+ 819 i_7_Ox_faulty))))))
(let ((a!2 (store c_52_Global_M_faulty
                  (+ 897 i_9_s_faulty)
                  (ite (bvslt a!1 #x00) (- (bv2int a!1) 256) (bv2int a!1)))))
  (= c_53_Global_M_faulty a!2))))
(assert (let ((a!1 (bvxor ((_ int2bv 8)
                    (select c_53_Global_M_faulty (+ 820 i_5_Vdec_faulty)))
                  ((_ int2bv 8)
                    (select c_53_Global_M_faulty (+ 820 i_7_Ox_faulty))))))
(let ((a!2 (store c_53_Global_M_faulty
                  (+ 898 i_9_s_faulty)
                  (ite (bvslt a!1 #x00) (- (bv2int a!1) 256) (bv2int a!1)))))
  (= c_54_Global_M_faulty a!2))))
(assert (let ((a!1 (bvxor ((_ int2bv 8)
                    (select c_54_Global_M_faulty (+ 821 i_5_Vdec_faulty)))
                  ((_ int2bv 8)
                    (select c_54_Global_M_faulty (+ 821 i_7_Ox_faulty))))))
(let ((a!2 (store c_54_Global_M_faulty
                  (+ 899 i_9_s_faulty)
                  (ite (bvslt a!1 #x00) (- (bv2int a!1) 256) (bv2int a!1)))))
  (= c_55_Global_M_faulty a!2))))
(assert (let ((a!1 (bvxor ((_ int2bv 8)
                    (select c_55_Global_M_faulty (+ 822 i_5_Vdec_faulty)))
                  ((_ int2bv 8)
                    (select c_55_Global_M_faulty (+ 822 i_7_Ox_faulty))))))
(let ((a!2 (store c_55_Global_M_faulty
                  (+ 900 i_9_s_faulty)
                  (ite (bvslt a!1 #x00) (- (bv2int a!1) 256) (bv2int a!1)))))
  (= c_56_Global_M_faulty a!2))))
(assert (let ((a!1 (bvxor ((_ int2bv 8)
                    (select c_56_Global_M_faulty (+ 823 i_5_Vdec_faulty)))
                  ((_ int2bv 8)
                    (select c_56_Global_M_faulty (+ 823 i_7_Ox_faulty))))))
(let ((a!2 (store c_56_Global_M_faulty
                  (+ 901 i_9_s_faulty)
                  (ite (bvslt a!1 #x00) (- (bv2int a!1) 256) (bv2int a!1)))))
  (= c_57_Global_M_faulty a!2))))
(assert (let ((a!1 (bvxor ((_ int2bv 8)
                    (select c_57_Global_M_faulty (+ 824 i_5_Vdec_faulty)))
                  ((_ int2bv 8)
                    (select c_57_Global_M_faulty (+ 824 i_7_Ox_faulty))))))
(let ((a!2 (store c_57_Global_M_faulty
                  (+ 902 i_9_s_faulty)
                  (ite (bvslt a!1 #x00) (- (bv2int a!1) 256) (bv2int a!1)))))
  (= c_58_Global_M_faulty a!2))))
(assert (let ((a!1 (bvxor ((_ int2bv 8)
                    (select c_58_Global_M_faulty (+ 825 i_5_Vdec_faulty)))
                  ((_ int2bv 8)
                    (select c_58_Global_M_faulty (+ 825 i_7_Ox_faulty))))))
(let ((a!2 (store c_58_Global_M_faulty
                  (+ 903 i_9_s_faulty)
                  (ite (bvslt a!1 #x00) (- (bv2int a!1) 256) (bv2int a!1)))))
  (= c_59_Global_M_faulty a!2))))
(assert (let ((a!1 (bvxor ((_ int2bv 8)
                    (select c_59_Global_M_faulty (+ 826 i_5_Vdec_faulty)))
                  ((_ int2bv 8)
                    (select c_59_Global_M_faulty (+ 826 i_7_Ox_faulty))))))
(let ((a!2 (store c_59_Global_M_faulty
                  (+ 904 i_9_s_faulty)
                  (ite (bvslt a!1 #x00) (- (bv2int a!1) 256) (bv2int a!1)))))
  (= c_60_Global_M_faulty a!2))))
(assert (let ((a!1 (bvxor ((_ int2bv 8)
                    (select c_60_Global_M_faulty (+ 827 i_5_Vdec_faulty)))
                  ((_ int2bv 8)
                    (select c_60_Global_M_faulty (+ 827 i_7_Ox_faulty))))))
(let ((a!2 (store c_60_Global_M_faulty
                  (+ 905 i_9_s_faulty)
                  (ite (bvslt a!1 #x00) (- (bv2int a!1) 256) (bv2int a!1)))))
  (= c_61_Global_M_faulty a!2))))
(assert (let ((a!1 (bvxor ((_ int2bv 8)
                    (select c_61_Global_M_faulty (+ 828 i_5_Vdec_faulty)))
                  ((_ int2bv 8)
                    (select c_61_Global_M_faulty (+ 828 i_7_Ox_faulty))))))
(let ((a!2 (store c_61_Global_M_faulty
                  (+ 906 i_9_s_faulty)
                  (ite (bvslt a!1 #x00) (- (bv2int a!1) 256) (bv2int a!1)))))
  (= c_62_Global_M_faulty a!2))))
(assert (let ((a!1 (bvxor ((_ int2bv 8)
                    (select c_62_Global_M_faulty (+ 829 i_5_Vdec_faulty)))
                  ((_ int2bv 8)
                    (select c_62_Global_M_faulty (+ 829 i_7_Ox_faulty))))))
(let ((a!2 (store c_62_Global_M_faulty
                  (+ 907 i_9_s_faulty)
                  (ite (bvslt a!1 #x00) (- (bv2int a!1) 256) (bv2int a!1)))))
  (= c_63_Global_M_faulty a!2))))
(assert (let ((a!1 (bvxor ((_ int2bv 8)
                    (select c_63_Global_M_faulty (+ 830 i_5_Vdec_faulty)))
                  ((_ int2bv 8)
                    (select c_63_Global_M_faulty (+ 830 i_7_Ox_faulty))))))
(let ((a!2 (store c_63_Global_M_faulty
                  (+ 908 i_9_s_faulty)
                  (ite (bvslt a!1 #x00) (- (bv2int a!1) 256) (bv2int a!1)))))
  (= c_64_Global_M_faulty a!2))))
(assert (let ((a!1 (bvxor ((_ int2bv 8)
                    (select c_64_Global_M_faulty (+ 831 i_5_Vdec_faulty)))
                  ((_ int2bv 8)
                    (select c_64_Global_M_faulty (+ 831 i_7_Ox_faulty))))))
(let ((a!2 (store c_64_Global_M_faulty
                  (+ 909 i_9_s_faulty)
                  (ite (bvslt a!1 #x00) (- (bv2int a!1) 256) (bv2int a!1)))))
  (= c_65_Global_M_faulty a!2))))
(assert (let ((a!1 (bvxor ((_ int2bv 8)
                    (select c_65_Global_M_faulty (+ 832 i_5_Vdec_faulty)))
                  ((_ int2bv 8)
                    (select c_65_Global_M_faulty (+ 832 i_7_Ox_faulty))))))
(let ((a!2 (store c_65_Global_M_faulty
                  (+ 910 i_9_s_faulty)
                  (ite (bvslt a!1 #x00) (- (bv2int a!1) 256) (bv2int a!1)))))
  (= c_66_Global_M_faulty a!2))))
(assert (let ((a!1 (bvxor ((_ int2bv 8)
                    (select c_66_Global_M_faulty (+ 833 i_5_Vdec_faulty)))
                  ((_ int2bv 8)
                    (select c_66_Global_M_faulty (+ 833 i_7_Ox_faulty))))))
(let ((a!2 (store c_66_Global_M_faulty
                  (+ 911 i_9_s_faulty)
                  (ite (bvslt a!1 #x00) (- (bv2int a!1) 256) (bv2int a!1)))))
  (= c_67_Global_M_faulty a!2))))
(assert (let ((a!1 (bvxor ((_ int2bv 8)
                    (select c_67_Global_M_faulty (+ 834 i_5_Vdec_faulty)))
                  ((_ int2bv 8)
                    (select c_67_Global_M_faulty (+ 834 i_7_Ox_faulty))))))
(let ((a!2 (store c_67_Global_M_faulty
                  (+ 912 i_9_s_faulty)
                  (ite (bvslt a!1 #x00) (- (bv2int a!1) 256) (bv2int a!1)))))
  (= c_68_Global_M_faulty a!2))))
(assert (let ((a!1 (bvxor ((_ int2bv 8)
                    (select c_68_Global_M_faulty (+ 835 i_5_Vdec_faulty)))
                  ((_ int2bv 8)
                    (select c_68_Global_M_faulty (+ 835 i_7_Ox_faulty))))))
(let ((a!2 (store c_68_Global_M_faulty
                  (+ 913 i_9_s_faulty)
                  (ite (bvslt a!1 #x00) (- (bv2int a!1) 256) (bv2int a!1)))))
  (= c_69_Global_M_faulty a!2))))
(assert (let ((a!1 (bvxor ((_ int2bv 8)
                    (select c_69_Global_M_faulty (+ 836 i_5_Vdec_faulty)))
                  ((_ int2bv 8)
                    (select c_69_Global_M_faulty (+ 836 i_7_Ox_faulty))))))
(let ((a!2 (store c_69_Global_M_faulty
                  (+ 914 i_9_s_faulty)
                  (ite (bvslt a!1 #x00) (- (bv2int a!1) 256) (bv2int a!1)))))
  (= c_70_Global_M_faulty a!2))))
(assert (let ((a!1 (bvxor ((_ int2bv 8)
                    (select c_70_Global_M_faulty (+ 837 i_5_Vdec_faulty)))
                  ((_ int2bv 8)
                    (select c_70_Global_M_faulty (+ 837 i_7_Ox_faulty))))))
(let ((a!2 (store c_70_Global_M_faulty
                  (+ 915 i_9_s_faulty)
                  (ite (bvslt a!1 #x00) (- (bv2int a!1) 256) (bv2int a!1)))))
  (= c_71_Global_M_faulty a!2))))
(assert (let ((a!1 (bvxor ((_ int2bv 8)
                    (select c_71_Global_M_faulty (+ 838 i_5_Vdec_faulty)))
                  ((_ int2bv 8)
                    (select c_71_Global_M_faulty (+ 838 i_7_Ox_faulty))))))
(let ((a!2 (store c_71_Global_M_faulty
                  (+ 916 i_9_s_faulty)
                  (ite (bvslt a!1 #x00) (- (bv2int a!1) 256) (bv2int a!1)))))
  (= c_72_Global_M_faulty a!2))))
(assert (let ((a!1 (bvxor ((_ int2bv 8)
                    (select c_72_Global_M_faulty (+ 839 i_5_Vdec_faulty)))
                  ((_ int2bv 8)
                    (select c_72_Global_M_faulty (+ 839 i_7_Ox_faulty))))))
(let ((a!2 (store c_72_Global_M_faulty
                  (+ 917 i_9_s_faulty)
                  (ite (bvslt a!1 #x00) (- (bv2int a!1) 256) (bv2int a!1)))))
  (= c_73_Global_M_faulty a!2))))
(assert (let ((a!1 (bvxor ((_ int2bv 8)
                    (select c_73_Global_M_faulty (+ 840 i_5_Vdec_faulty)))
                  ((_ int2bv 8)
                    (select c_73_Global_M_faulty (+ 840 i_7_Ox_faulty))))))
(let ((a!2 (store c_73_Global_M_faulty
                  (+ 918 i_9_s_faulty)
                  (ite (bvslt a!1 #x00) (- (bv2int a!1) 256) (bv2int a!1)))))
  (= c_74_Global_M_faulty a!2))))
(assert (let ((a!1 (bvxor ((_ int2bv 8)
                    (select c_74_Global_M_faulty (+ 841 i_5_Vdec_faulty)))
                  ((_ int2bv 8)
                    (select c_74_Global_M_faulty (+ 841 i_7_Ox_faulty))))))
(let ((a!2 (store c_74_Global_M_faulty
                  (+ 919 i_9_s_faulty)
                  (ite (bvslt a!1 #x00) (- (bv2int a!1) 256) (bv2int a!1)))))
  (= c_75_Global_M_faulty a!2))))
(assert (let ((a!1 (bvxor ((_ int2bv 8)
                    (select c_75_Global_M_faulty (+ 842 i_5_Vdec_faulty)))
                  ((_ int2bv 8)
                    (select c_75_Global_M_faulty (+ 842 i_7_Ox_faulty))))))
(let ((a!2 (store c_75_Global_M_faulty
                  (+ 920 i_9_s_faulty)
                  (ite (bvslt a!1 #x00) (- (bv2int a!1) 256) (bv2int a!1)))))
  (= c_76_Global_M_faulty a!2))))
(assert (let ((a!1 (bvxor ((_ int2bv 8)
                    (select c_76_Global_M_faulty (+ 843 i_5_Vdec_faulty)))
                  ((_ int2bv 8)
                    (select c_76_Global_M_faulty (+ 843 i_7_Ox_faulty))))))
(let ((a!2 (store c_76_Global_M_faulty
                  (+ 921 i_9_s_faulty)
                  (ite (bvslt a!1 #x00) (- (bv2int a!1) 256) (bv2int a!1)))))
  (= c_77_Global_M_faulty a!2))))
(assert (let ((a!1 (bvxor ((_ int2bv 8)
                    (select c_77_Global_M_faulty (+ 844 i_5_Vdec_faulty)))
                  ((_ int2bv 8)
                    (select c_77_Global_M_faulty (+ 844 i_7_Ox_faulty))))))
(let ((a!2 (store c_77_Global_M_faulty
                  (+ 922 i_9_s_faulty)
                  (ite (bvslt a!1 #x00) (- (bv2int a!1) 256) (bv2int a!1)))))
  (= c_78_Global_M_faulty a!2))))
(assert (let ((a!1 (bvxor ((_ int2bv 8)
                    (select c_78_Global_M_faulty (+ 845 i_5_Vdec_faulty)))
                  ((_ int2bv 8)
                    (select c_78_Global_M_faulty (+ 845 i_7_Ox_faulty))))))
(let ((a!2 (store c_78_Global_M_faulty
                  (+ 923 i_9_s_faulty)
                  (ite (bvslt a!1 #x00) (- (bv2int a!1) 256) (bv2int a!1)))))
  (= c_79_Global_M_faulty a!2))))
(assert (let ((a!1 (bvxor ((_ int2bv 8)
                    (select c_79_Global_M_faulty (+ 846 i_5_Vdec_faulty)))
                  ((_ int2bv 8)
                    (select c_79_Global_M_faulty (+ 846 i_7_Ox_faulty))))))
(let ((a!2 (store c_79_Global_M_faulty
                  (+ 924 i_9_s_faulty)
                  (ite (bvslt a!1 #x00) (- (bv2int a!1) 256) (bv2int a!1)))))
  (= c_80_Global_M_faulty a!2))))
(assert (let ((a!1 (bvxor ((_ int2bv 8)
                    (select c_80_Global_M_faulty (+ 847 i_5_Vdec_faulty)))
                  ((_ int2bv 8)
                    (select c_80_Global_M_faulty (+ 847 i_7_Ox_faulty))))))
(let ((a!2 (store c_80_Global_M_faulty
                  (+ 925 i_9_s_faulty)
                  (ite (bvslt a!1 #x00) (- (bv2int a!1) 256) (bv2int a!1)))))
  (= c_81_Global_M_faulty a!2))))
(assert (let ((a!1 (bvxor ((_ int2bv 8)
                    (select c_81_Global_M_faulty (+ 848 i_5_Vdec_faulty)))
                  ((_ int2bv 8)
                    (select c_81_Global_M_faulty (+ 848 i_7_Ox_faulty))))))
(let ((a!2 (store c_81_Global_M_faulty
                  (+ 926 i_9_s_faulty)
                  (ite (bvslt a!1 #x00) (- (bv2int a!1) 256) (bv2int a!1)))))
  (= c_82_Global_M_faulty a!2))))
(assert (let ((a!1 (bvxor ((_ int2bv 8)
                    (select c_82_Global_M_faulty (+ 849 i_5_Vdec_faulty)))
                  ((_ int2bv 8)
                    (select c_82_Global_M_faulty (+ 849 i_7_Ox_faulty))))))
(let ((a!2 (store c_82_Global_M_faulty
                  (+ 927 i_9_s_faulty)
                  (ite (bvslt a!1 #x00) (- (bv2int a!1) 256) (bv2int a!1)))))
  (= c_83_Global_M_faulty a!2))))
(assert (let ((a!1 (bvxor ((_ int2bv 8)
                    (select c_83_Global_M_faulty (+ 850 i_5_Vdec_faulty)))
                  ((_ int2bv 8)
                    (select c_83_Global_M_faulty (+ 850 i_7_Ox_faulty))))))
(let ((a!2 (store c_83_Global_M_faulty
                  (+ 928 i_9_s_faulty)
                  (ite (bvslt a!1 #x00) (- (bv2int a!1) 256) (bv2int a!1)))))
  (= c_84_Global_M_faulty a!2))))
(assert (let ((a!1 (bvxor ((_ int2bv 8)
                    (select c_84_Global_M_faulty (+ 851 i_5_Vdec_faulty)))
                  ((_ int2bv 8)
                    (select c_84_Global_M_faulty (+ 851 i_7_Ox_faulty))))))
(let ((a!2 (store c_84_Global_M_faulty
                  (+ 929 i_9_s_faulty)
                  (ite (bvslt a!1 #x00) (- (bv2int a!1) 256) (bv2int a!1)))))
  (= c_85_Global_M_faulty a!2))))
(assert (let ((a!1 (bvxor ((_ int2bv 8)
                    (select c_85_Global_M_faulty (+ 852 i_5_Vdec_faulty)))
                  ((_ int2bv 8)
                    (select c_85_Global_M_faulty (+ 852 i_7_Ox_faulty))))))
(let ((a!2 (store c_85_Global_M_faulty
                  (+ 930 i_9_s_faulty)
                  (ite (bvslt a!1 #x00) (- (bv2int a!1) 256) (bv2int a!1)))))
  (= c_86_Global_M_faulty a!2))))
(assert (let ((a!1 (bvxor ((_ int2bv 8)
                    (select c_86_Global_M_faulty (+ 853 i_5_Vdec_faulty)))
                  ((_ int2bv 8)
                    (select c_86_Global_M_faulty (+ 853 i_7_Ox_faulty))))))
(let ((a!2 (store c_86_Global_M_faulty
                  (+ 931 i_9_s_faulty)
                  (ite (bvslt a!1 #x00) (- (bv2int a!1) 256) (bv2int a!1)))))
  (= c_87_Global_M_faulty a!2))))
(assert (let ((a!1 (bvxor ((_ int2bv 8)
                    (select c_87_Global_M_faulty (+ 854 i_5_Vdec_faulty)))
                  ((_ int2bv 8)
                    (select c_87_Global_M_faulty (+ 854 i_7_Ox_faulty))))))
(let ((a!2 (store c_87_Global_M_faulty
                  (+ 932 i_9_s_faulty)
                  (ite (bvslt a!1 #x00) (- (bv2int a!1) 256) (bv2int a!1)))))
  (= c_88_Global_M_faulty a!2))))
(assert (let ((a!1 (bvxor ((_ int2bv 8)
                    (select c_88_Global_M_faulty (+ 855 i_5_Vdec_faulty)))
                  ((_ int2bv 8)
                    (select c_88_Global_M_faulty (+ 855 i_7_Ox_faulty))))))
(let ((a!2 (store c_88_Global_M_faulty
                  (+ 933 i_9_s_faulty)
                  (ite (bvslt a!1 #x00) (- (bv2int a!1) 256) (bv2int a!1)))))
  (= c_89_Global_M_faulty a!2))))
(assert (let ((a!1 (bvxor ((_ int2bv 8)
                    (select c_89_Global_M_faulty (+ 856 i_5_Vdec_faulty)))
                  ((_ int2bv 8)
                    (select c_89_Global_M_faulty (+ 856 i_7_Ox_faulty))))))
(let ((a!2 (store c_89_Global_M_faulty
                  (+ 934 i_9_s_faulty)
                  (ite (bvslt a!1 #x00) (- (bv2int a!1) 256) (bv2int a!1)))))
  (= c_90_Global_M_faulty a!2))))
(assert (let ((a!1 (bvxor ((_ int2bv 8)
                    (select c_90_Global_M_faulty (+ 857 i_5_Vdec_faulty)))
                  ((_ int2bv 8)
                    (select c_90_Global_M_faulty (+ 857 i_7_Ox_faulty))))))
(let ((a!2 (store c_90_Global_M_faulty
                  (+ 935 i_9_s_faulty)
                  (ite (bvslt a!1 #x00) (- (bv2int a!1) 256) (bv2int a!1)))))
  (= c_91_Global_M_faulty a!2))))
(assert (= i_10_ret_val_faulty 0))
(assert (not true))
(check-sat)
